cost: 1150.25
Route 1:           0    4    8   36   30   26   33    0
Route 2:           0    7    6   35   45   20    0
Route 3:           0   12    9   41   13   10   17   25   18    0
Route 4:           0   15   46   23   22    5   14    0
Route 5:           0   24   21    2   39   31    0
Route 6:           0   29   38   50    1   48   34   11   19    0
Route 7:           0   37   32   40    0
Route 8:           0   44   27   43   28    0
Route 9:           0   49   16    3   47   42    0
